
Gurobi 11.0.3 (win64, C++) logging started Wed Oct  9 23:32:41 2024

Set parameter Username
Set parameter LogFile to value "assignment.log"
Academic license - for non-commercial use only - expires 2025-10-10
Gurobi Optimizer version 11.0.3 build v11.0.3rc0 (win64 - Windows 11.0 (22000.2))

CPU model: AMD Ryzen 7 5800H with Radeon Graphics, instruction set [SSE2|AVX|AVX2]
Thread count: 8 physical cores, 16 logical processors, using up to 16 threads

Optimize a model with 10 rows, 25 columns and 50 nonzeros
Model fingerprint: 0xbfc9cc5d
Variable types: 0 continuous, 25 integer (25 binary)
Coefficient statistics:
  Matrix range     [1e+00, 1e+00]
  Objective range  [2e+00, 2e+01]
  Bounds range     [1e+00, 1e+00]
  RHS range        [1e+00, 1e+00]
Found heuristic solution: objective 0.0000000

Explored 0 nodes (0 simplex iterations) in 0.00 seconds (0.00 work units)
Thread count was 1 (of 16 available processors)

Solution count 1: 0 

Optimal solution found (tolerance 1.00e-04)
Best objective 0.000000000000e+00, best bound 0.000000000000e+00, gap 0.0000%

Gurobi 11.0.3 (win64, C++) logging started Wed Oct  9 23:44:00 2024

Set parameter Username
Set parameter LogFile to value "assignment.log"
Academic license - for non-commercial use only - expires 2025-10-10
Gurobi Optimizer version 11.0.3 build v11.0.3rc0 (win64 - Windows 11.0 (22000.2))

CPU model: AMD Ryzen 7 5800H with Radeon Graphics, instruction set [SSE2|AVX|AVX2]
Thread count: 8 physical cores, 16 logical processors, using up to 16 threads

Optimize a model with 10 rows, 25 columns and 50 nonzeros
Model fingerprint: 0xbfc9cc5d
Variable types: 0 continuous, 25 integer (25 binary)
Coefficient statistics:
  Matrix range     [1e+00, 1e+00]
  Objective range  [2e+00, 2e+01]
  Bounds range     [1e+00, 1e+00]
  RHS range        [1e+00, 1e+00]
Found heuristic solution: objective 0.0000000

Explored 0 nodes (0 simplex iterations) in 0.00 seconds (0.00 work units)
Thread count was 1 (of 16 available processors)

Solution count 1: 0 

Optimal solution found (tolerance 1.00e-04)
Best objective 0.000000000000e+00, best bound 0.000000000000e+00, gap 0.0000%

Gurobi 11.0.3 (win64, C++) logging started Wed Oct  9 23:50:41 2024

Set parameter Username
Set parameter LogFile to value "assignment.log"
Academic license - for non-commercial use only - expires 2025-10-10
Gurobi Optimizer version 11.0.3 build v11.0.3rc0 (win64 - Windows 11.0 (22000.2))

CPU model: AMD Ryzen 7 5800H with Radeon Graphics, instruction set [SSE2|AVX|AVX2]
Thread count: 8 physical cores, 16 logical processors, using up to 16 threads

Optimize a model with 10 rows, 25 columns and 50 nonzeros
Model fingerprint: 0xbfc9cc5d
Variable types: 0 continuous, 25 integer (25 binary)
Coefficient statistics:
  Matrix range     [1e+00, 1e+00]
  Objective range  [2e+00, 2e+01]
  Bounds range     [1e+00, 1e+00]
  RHS range        [1e+00, 1e+00]
Found heuristic solution: objective 0.0000000

Explored 0 nodes (0 simplex iterations) in 0.00 seconds (0.00 work units)
Thread count was 1 (of 16 available processors)

Solution count 1: 0 

Optimal solution found (tolerance 1.00e-04)
Best objective 0.000000000000e+00, best bound 0.000000000000e+00, gap 0.0000%

Gurobi 11.0.3 (win64, C++) logging started Wed Oct  9 23:50:46 2024

Set parameter Username
Set parameter LogFile to value "assignment.log"
Academic license - for non-commercial use only - expires 2025-10-10
Gurobi Optimizer version 11.0.3 build v11.0.3rc0 (win64 - Windows 11.0 (22000.2))

CPU model: AMD Ryzen 7 5800H with Radeon Graphics, instruction set [SSE2|AVX|AVX2]
Thread count: 8 physical cores, 16 logical processors, using up to 16 threads

Optimize a model with 10 rows, 25 columns and 50 nonzeros
Model fingerprint: 0xbfc9cc5d
Variable types: 0 continuous, 25 integer (25 binary)
Coefficient statistics:
  Matrix range     [1e+00, 1e+00]
  Objective range  [2e+00, 2e+01]
  Bounds range     [1e+00, 1e+00]
  RHS range        [1e+00, 1e+00]
Found heuristic solution: objective 0.0000000

Explored 0 nodes (0 simplex iterations) in 0.00 seconds (0.00 work units)
Thread count was 1 (of 16 available processors)

Solution count 1: 0 

Optimal solution found (tolerance 1.00e-04)
Best objective 0.000000000000e+00, best bound 0.000000000000e+00, gap 0.0000%

Gurobi 11.0.3 (win64, C++) logging started Wed Oct  9 23:50:51 2024

Set parameter Username
Set parameter LogFile to value "assignment.log"
Academic license - for non-commercial use only - expires 2025-10-10
Gurobi Optimizer version 11.0.3 build v11.0.3rc0 (win64 - Windows 11.0 (22000.2))

CPU model: AMD Ryzen 7 5800H with Radeon Graphics, instruction set [SSE2|AVX|AVX2]
Thread count: 8 physical cores, 16 logical processors, using up to 16 threads

Optimize a model with 10 rows, 25 columns and 50 nonzeros
Model fingerprint: 0xbfc9cc5d
Variable types: 0 continuous, 25 integer (25 binary)
Coefficient statistics:
  Matrix range     [1e+00, 1e+00]
  Objective range  [2e+00, 2e+01]
  Bounds range     [1e+00, 1e+00]
  RHS range        [1e+00, 1e+00]
Found heuristic solution: objective 0.0000000

Explored 0 nodes (0 simplex iterations) in 0.00 seconds (0.00 work units)
Thread count was 1 (of 16 available processors)

Solution count 1: 0 

Optimal solution found (tolerance 1.00e-04)
Best objective 0.000000000000e+00, best bound 0.000000000000e+00, gap 0.0000%

Gurobi 11.0.3 (win64, C++) logging started Wed Oct  9 23:52:35 2024

Set parameter Username
Set parameter LogFile to value "assignment.log"
Academic license - for non-commercial use only - expires 2025-10-10
Gurobi Optimizer version 11.0.3 build v11.0.3rc0 (win64 - Windows 11.0 (22000.2))

CPU model: AMD Ryzen 7 5800H with Radeon Graphics, instruction set [SSE2|AVX|AVX2]
Thread count: 8 physical cores, 16 logical processors, using up to 16 threads

Optimize a model with 10 rows, 25 columns and 50 nonzeros
Model fingerprint: 0xbfc9cc5d
Variable types: 0 continuous, 25 integer (25 binary)
Coefficient statistics:
  Matrix range     [1e+00, 1e+00]
  Objective range  [2e+00, 2e+01]
  Bounds range     [1e+00, 1e+00]
  RHS range        [1e+00, 1e+00]
Found heuristic solution: objective 0.0000000

Explored 0 nodes (0 simplex iterations) in 0.00 seconds (0.00 work units)
Thread count was 1 (of 16 available processors)

Solution count 1: 0 

Optimal solution found (tolerance 1.00e-04)
Best objective 0.000000000000e+00, best bound 0.000000000000e+00, gap 0.0000%

Gurobi 11.0.3 (win64, C++) logging started Wed Oct  9 23:59:35 2024

Set parameter Username
Set parameter LogFile to value "assignment.log"
Academic license - for non-commercial use only - expires 2025-10-10
Gurobi Optimizer version 11.0.3 build v11.0.3rc0 (win64 - Windows 11.0 (22000.2))

CPU model: AMD Ryzen 7 5800H with Radeon Graphics, instruction set [SSE2|AVX|AVX2]
Thread count: 8 physical cores, 16 logical processors, using up to 16 threads

Optimize a model with 10 rows, 25 columns and 50 nonzeros
Model fingerprint: 0xbfc9cc5d
Variable types: 0 continuous, 25 integer (25 binary)
Coefficient statistics:
  Matrix range     [1e+00, 1e+00]
  Objective range  [2e+00, 2e+01]
  Bounds range     [1e+00, 1e+00]
  RHS range        [1e+00, 1e+00]
Found heuristic solution: objective 0.0000000

Explored 0 nodes (0 simplex iterations) in 0.01 seconds (0.00 work units)
Thread count was 1 (of 16 available processors)

Solution count 1: 0 

Optimal solution found (tolerance 1.00e-04)
Best objective 0.000000000000e+00, best bound 0.000000000000e+00, gap 0.0000%

Gurobi 11.0.3 (win64, C++) logging started Thu Oct 10 00:04:08 2024

Set parameter Username
Set parameter LogFile to value "assignment.log"
Academic license - for non-commercial use only - expires 2025-10-10
Gurobi Optimizer version 11.0.3 build v11.0.3rc0 (win64 - Windows 11.0 (22000.2))

CPU model: AMD Ryzen 7 5800H with Radeon Graphics, instruction set [SSE2|AVX|AVX2]
Thread count: 8 physical cores, 16 logical processors, using up to 16 threads

Optimize a model with 10 rows, 25 columns and 50 nonzeros
Model fingerprint: 0xbfc9cc5d
Variable types: 0 continuous, 25 integer (25 binary)
Coefficient statistics:
  Matrix range     [1e+00, 1e+00]
  Objective range  [2e+00, 2e+01]
  Bounds range     [1e+00, 1e+00]
  RHS range        [1e+00, 1e+00]
Found heuristic solution: objective 0.0000000

Explored 0 nodes (0 simplex iterations) in 0.01 seconds (0.00 work units)
Thread count was 1 (of 16 available processors)

Solution count 1: 0 

Optimal solution found (tolerance 1.00e-04)
Best objective 0.000000000000e+00, best bound 0.000000000000e+00, gap 0.0000%

Gurobi 11.0.3 (win64, C++) logging started Thu Oct 10 00:06:15 2024

Set parameter Username
Set parameter LogFile to value "assignment.log"
Academic license - for non-commercial use only - expires 2025-10-10
Gurobi Optimizer version 11.0.3 build v11.0.3rc0 (win64 - Windows 11.0 (22000.2))

CPU model: AMD Ryzen 7 5800H with Radeon Graphics, instruction set [SSE2|AVX|AVX2]
Thread count: 8 physical cores, 16 logical processors, using up to 16 threads

Optimize a model with 10 rows, 25 columns and 50 nonzeros
Model fingerprint: 0xbfc9cc5d
Variable types: 0 continuous, 25 integer (25 binary)
Coefficient statistics:
  Matrix range     [1e+00, 1e+00]
  Objective range  [2e+00, 2e+01]
  Bounds range     [1e+00, 1e+00]
  RHS range        [1e+00, 1e+00]
Found heuristic solution: objective 0.0000000

Explored 0 nodes (0 simplex iterations) in 0.01 seconds (0.00 work units)
Thread count was 1 (of 16 available processors)

Solution count 1: 0 

Optimal solution found (tolerance 1.00e-04)
Best objective 0.000000000000e+00, best bound 0.000000000000e+00, gap 0.0000%

Gurobi 11.0.3 (win64, C++) logging started Thu Oct 10 01:33:38 2024

Set parameter Username
Set parameter LogFile to value "assignment.log"
Academic license - for non-commercial use only - expires 2025-10-10
Gurobi Optimizer version 11.0.3 build v11.0.3rc0 (win64 - Windows 11.0 (22000.2))

CPU model: AMD Ryzen 7 5800H with Radeon Graphics, instruction set [SSE2|AVX|AVX2]
Thread count: 8 physical cores, 16 logical processors, using up to 16 threads

Optimize a model with 10 rows, 25 columns and 50 nonzeros
Model fingerprint: 0xbfc9cc5d
Variable types: 0 continuous, 25 integer (25 binary)
Coefficient statistics:
  Matrix range     [1e+00, 1e+00]
  Objective range  [2e+00, 2e+01]
  Bounds range     [1e+00, 1e+00]
  RHS range        [1e+00, 1e+00]
Found heuristic solution: objective 0.0000000

Explored 0 nodes (0 simplex iterations) in 0.02 seconds (0.00 work units)
Thread count was 1 (of 16 available processors)

Solution count 1: 0 

Optimal solution found (tolerance 1.00e-04)
Best objective 0.000000000000e+00, best bound 0.000000000000e+00, gap 0.0000%

Gurobi 11.0.3 (win64, C++) logging started Thu Oct 10 01:41:34 2024

Set parameter Username
Set parameter LogFile to value "assignment.log"
Academic license - for non-commercial use only - expires 2025-10-10
Gurobi Optimizer version 11.0.3 build v11.0.3rc0 (win64 - Windows 11.0 (22000.2))

CPU model: AMD Ryzen 7 5800H with Radeon Graphics, instruction set [SSE2|AVX|AVX2]
Thread count: 8 physical cores, 16 logical processors, using up to 16 threads

Optimize a model with 10 rows, 25 columns and 50 nonzeros
Model fingerprint: 0xbfc9cc5d
Variable types: 0 continuous, 25 integer (25 binary)
Coefficient statistics:
  Matrix range     [1e+00, 1e+00]
  Objective range  [2e+00, 2e+01]
  Bounds range     [1e+00, 1e+00]
  RHS range        [1e+00, 1e+00]
Found heuristic solution: objective 0.0000000

Explored 0 nodes (0 simplex iterations) in 0.02 seconds (0.00 work units)
Thread count was 1 (of 16 available processors)

Solution count 1: 0 

Optimal solution found (tolerance 1.00e-04)
Best objective 0.000000000000e+00, best bound 0.000000000000e+00, gap 0.0000%

Gurobi 11.0.3 (win64, C++) logging started Thu Oct 10 01:41:44 2024

Set parameter Username
Set parameter LogFile to value "assignment.log"
Academic license - for non-commercial use only - expires 2025-10-10

Gurobi 11.0.3 (win64, C++) logging started Thu Oct 10 01:47:36 2024

Set parameter Username
Set parameter LogFile to value "assignment.log"
Academic license - for non-commercial use only - expires 2025-10-10
Gurobi Optimizer version 11.0.3 build v11.0.3rc0 (win64 - Windows 11.0 (22000.2))

CPU model: AMD Ryzen 7 5800H with Radeon Graphics, instruction set [SSE2|AVX|AVX2]
Thread count: 8 physical cores, 16 logical processors, using up to 16 threads

Optimize a model with 10 rows, 25 columns and 50 nonzeros
Model fingerprint: 0xbfc9cc5d
Variable types: 0 continuous, 25 integer (25 binary)
Coefficient statistics:
  Matrix range     [1e+00, 1e+00]
  Objective range  [2e+00, 2e+01]
  Bounds range     [1e+00, 1e+00]
  RHS range        [1e+00, 1e+00]
Found heuristic solution: objective 0.0000000

Explored 0 nodes (0 simplex iterations) in 0.02 seconds (0.00 work units)
Thread count was 1 (of 16 available processors)

Solution count 1: 0 

Optimal solution found (tolerance 1.00e-04)
Best objective 0.000000000000e+00, best bound 0.000000000000e+00, gap 0.0000%

Gurobi 11.0.3 (win64, C++) logging started Thu Oct 10 01:52:45 2024

Set parameter Username
Set parameter LogFile to value "assignment.log"
Academic license - for non-commercial use only - expires 2025-10-10
Gurobi Optimizer version 11.0.3 build v11.0.3rc0 (win64 - Windows 11.0 (22000.2))

CPU model: AMD Ryzen 7 5800H with Radeon Graphics, instruction set [SSE2|AVX|AVX2]
Thread count: 8 physical cores, 16 logical processors, using up to 16 threads

Optimize a model with 10 rows, 25 columns and 50 nonzeros
Model fingerprint: 0x56fc1cc3
Variable types: 0 continuous, 25 integer (25 binary)
Coefficient statistics:
  Matrix range     [1e+00, 1e+00]
  Objective range  [2e+00, 2e+01]
  Bounds range     [1e+00, 1e+00]
  RHS range        [1e+00, 1e+00]
Found heuristic solution: objective 35.0000000
Presolve time: 0.02s
Presolved: 10 rows, 25 columns, 50 nonzeros
Variable types: 0 continuous, 25 integer (25 binary)

Root relaxation: objective 1.700000e+01, 7 iterations, 0.01 seconds (0.00 work units)

    Nodes    |    Current Node    |     Objective Bounds      |     Work
 Expl Unexpl |  Obj  Depth IntInf | Incumbent    BestBd   Gap | It/Node Time

*    0     0               0      17.0000000   17.00000  0.00%     -    0s

Explored 1 nodes (7 simplex iterations) in 0.10 seconds (0.00 work units)
Thread count was 16 (of 16 available processors)

Solution count 2: 17 35 

Optimal solution found (tolerance 1.00e-04)
Best objective 1.700000000000e+01, best bound 1.700000000000e+01, gap 0.0000%

Gurobi 11.0.3 (win64, C++) logging started Sun Oct 13 23:12:39 2024

Set parameter Username
Set parameter LogFile to value "assignment.log"
Academic license - for non-commercial use only - expires 2025-10-10
Gurobi Optimizer version 11.0.3 build v11.0.3rc0 (win64 - Windows 11.0 (22000.2))

CPU model: AMD Ryzen 7 5800H with Radeon Graphics, instruction set [SSE2|AVX|AVX2]
Thread count: 8 physical cores, 16 logical processors, using up to 16 threads

Optimize a model with 10 rows, 25 columns and 50 nonzeros
Model fingerprint: 0x56fc1cc3
Variable types: 0 continuous, 25 integer (25 binary)
Coefficient statistics:
  Matrix range     [1e+00, 1e+00]
  Objective range  [2e+00, 2e+01]
  Bounds range     [1e+00, 1e+00]
  RHS range        [1e+00, 1e+00]
Found heuristic solution: objective 35.0000000
Presolve time: 0.00s
Presolved: 10 rows, 25 columns, 50 nonzeros
Variable types: 0 continuous, 25 integer (25 binary)

Root relaxation: objective 1.700000e+01, 7 iterations, 0.00 seconds (0.00 work units)

    Nodes    |    Current Node    |     Objective Bounds      |     Work
 Expl Unexpl |  Obj  Depth IntInf | Incumbent    BestBd   Gap | It/Node Time

*    0     0               0      17.0000000   17.00000  0.00%     -    0s

Explored 1 nodes (7 simplex iterations) in 0.03 seconds (0.00 work units)
Thread count was 16 (of 16 available processors)

Solution count 2: 17 35 

Optimal solution found (tolerance 1.00e-04)
Best objective 1.700000000000e+01, best bound 1.700000000000e+01, gap 0.0000%

Gurobi 11.0.3 (win64, C++) logging started Tue Oct 15 10:52:55 2024

Set parameter Username
Set parameter LogFile to value "assignment.log"
Academic license - for non-commercial use only - expires 2025-10-10
Gurobi Optimizer version 11.0.3 build v11.0.3rc0 (win64 - Windows 11.0 (22000.2))

CPU model: AMD Ryzen 7 5800H with Radeon Graphics, instruction set [SSE2|AVX|AVX2]
Thread count: 8 physical cores, 16 logical processors, using up to 16 threads

Optimize a model with 10 rows, 25 columns and 50 nonzeros
Model fingerprint: 0x56fc1cc3
Variable types: 0 continuous, 25 integer (25 binary)
Coefficient statistics:
  Matrix range     [1e+00, 1e+00]
  Objective range  [2e+00, 2e+01]
  Bounds range     [1e+00, 1e+00]
  RHS range        [1e+00, 1e+00]
Found heuristic solution: objective 35.0000000
Presolve time: 0.00s
Presolved: 10 rows, 25 columns, 50 nonzeros
Variable types: 0 continuous, 25 integer (25 binary)

Root relaxation: objective 1.700000e+01, 7 iterations, 0.00 seconds (0.00 work units)

    Nodes    |    Current Node    |     Objective Bounds      |     Work
 Expl Unexpl |  Obj  Depth IntInf | Incumbent    BestBd   Gap | It/Node Time

*    0     0               0      17.0000000   17.00000  0.00%     -    0s

Explored 1 nodes (7 simplex iterations) in 0.06 seconds (0.00 work units)
Thread count was 16 (of 16 available processors)

Solution count 2: 17 35 

Optimal solution found (tolerance 1.00e-04)
Best objective 1.700000000000e+01, best bound 1.700000000000e+01, gap 0.0000%

Gurobi 11.0.3 (win64, C++) logging started Thu Nov 21 09:57:56 2024

Set parameter Username
Set parameter LogFile to value "assignment.log"
Academic license - for non-commercial use only - expires 2025-10-10
Gurobi Optimizer version 11.0.3 build v11.0.3rc0 (win64 - Windows 11.0 (22000.2))

CPU model: AMD Ryzen 7 5800H with Radeon Graphics, instruction set [SSE2|AVX|AVX2]
Thread count: 8 physical cores, 16 logical processors, using up to 16 threads

Optimize a model with 10 rows, 25 columns and 50 nonzeros
Model fingerprint: 0x56fc1cc3
Variable types: 0 continuous, 25 integer (25 binary)
Coefficient statistics:
  Matrix range     [1e+00, 1e+00]
  Objective range  [2e+00, 2e+01]
  Bounds range     [1e+00, 1e+00]
  RHS range        [1e+00, 1e+00]
Found heuristic solution: objective 35.0000000
Presolve time: 0.00s
Presolved: 10 rows, 25 columns, 50 nonzeros
Variable types: 0 continuous, 25 integer (25 binary)

Root relaxation: objective 1.700000e+01, 7 iterations, 0.00 seconds (0.00 work units)

    Nodes    |    Current Node    |     Objective Bounds      |     Work
 Expl Unexpl |  Obj  Depth IntInf | Incumbent    BestBd   Gap | It/Node Time

*    0     0               0      17.0000000   17.00000  0.00%     -    0s

Explored 1 nodes (7 simplex iterations) in 0.02 seconds (0.00 work units)
Thread count was 16 (of 16 available processors)

Solution count 2: 17 35 

Optimal solution found (tolerance 1.00e-04)
Best objective 1.700000000000e+01, best bound 1.700000000000e+01, gap 0.0000%
